p cnf 785 2583
-7 -12 51 0
7 -12 -51 0
-7 12 -51 0
7 12 51 0
13 16 52 0
-13 16 -52 0
13 -16 -52 0
-13 -16 52 0
17 -19 53 0
-17 -19 -53 0
17 19 -53 0
-17 19 53 0
-20 -26 54 0
20 -26 -54 0
-20 26 -54 0
20 26 54 0
-29 30 55 0
29 30 -55 0
-29 -30 -55 0
29 -30 55 0
31 34 56 0
-31 34 -56 0
31 -34 -56 0
-31 -34 56 0
-37 40 57 0
37 40 -57 0
-37 -40 -57 0
37 -40 57 0
-41 -43 58 0
41 -43 -58 0
-41 43 -58 0
41 43 58 0
-44 -45 59 0
44 -45 -59 0
-44 45 -59 0
44 45 59 0
46 47 60 0
-46 47 -60 0
46 -47 -60 0
-46 -47 60 0
-48 -50 61 0
48 -50 -61 0
-48 50 -61 0
48 50 61 0
51 -52 62 0
-51 -52 -62 0
51 52 -62 0
-51 52 62 0
53 -54 63 0
-53 -54 -63 0
53 54 -63 0
-53 54 63 0
55 -56 64 0
-55 -56 -64 0
55 56 -64 0
-55 56 64 0
57 -58 65 0
-57 -58 -65 0
57 58 -65 0
-57 58 65 0
59 -60 66 0
-59 -60 -66 0
59 60 -66 0
-59 60 66 0
61 -62 67 0
-61 -62 -67 0
61 62 -67 0
-61 62 67 0
63 -64 68 0
-63 -64 -68 0
63 64 -68 0
-63 64 68 0
65 -66 69 0
-65 -66 -69 0
65 66 -69 0
-65 66 69 0
-67 -68 69 0
67 -68 -69 0
-67 68 -69 0
67 68 69 0
-1 -3 70 0
1 -3 -70 0
-1 3 -70 0
1 3 70 0
-4 5 71 0
4 5 -71 0
-4 -5 -71 0
4 -5 71 0
-6 7 72 0
6 7 -72 0
-6 -7 -72 0
6 -7 72 0
15 16 73 0
-15 16 -73 0
15 -16 -73 0
-15 -16 73 0
-18 19 74 0
18 19 -74 0
-18 -19 -74 0
18 -19 74 0
-22 -27 75 0
22 -27 -75 0
-22 27 -75 0
22 27 75 0
-28 -29 76 0
28 -29 -76 0
-28 29 -76 0
28 29 76 0
-32 34 77 0
32 34 -77 0
-32 -34 -77 0
32 -34 77 0
-36 -39 78 0
36 -39 -78 0
-36 39 -78 0
36 39 78 0
-40 42 79 0
40 42 -79 0
-40 -42 -79 0
40 -42 79 0
-45 46 80 0
45 46 -80 0
-45 -46 -80 0
45 -46 80 0
49 -50 81 0
-49 -50 -81 0
49 50 -81 0
-49 50 81 0
70 -71 82 0
-70 -71 -82 0
70 71 -82 0
-70 71 82 0
72 -73 83 0
-72 -73 -83 0
72 73 -83 0
-72 73 83 0
74 -75 84 0
-74 -75 -84 0
74 75 -84 0
-74 75 84 0
76 -77 85 0
-76 -77 -85 0
76 77 -85 0
-76 77 85 0
78 -79 86 0
-78 -79 -86 0
78 79 -86 0
-78 79 86 0
80 -81 87 0
-80 -81 -87 0
80 81 -87 0
-80 81 87 0
82 -83 88 0
-82 -83 -88 0
82 83 -88 0
-82 83 88 0
84 -85 89 0
-84 -85 -89 0
84 85 -89 0
-84 85 89 0
86 -87 90 0
-86 -87 -90 0
86 87 -90 0
-86 87 90 0
-88 -89 90 0
88 -89 -90 0
-88 89 -90 0
88 89 90 0
-4 -5 91 0
4 -5 -91 0
-4 5 -91 0
4 5 91 0
-6 8 92 0
6 8 -92 0
-6 -8 -92 0
6 -8 92 0
9 10 93 0
-9 10 -93 0
9 -10 -93 0
-9 -10 93 0
12 15 94 0
-12 15 -94 0
12 -15 -94 0
-12 -15 94 0
-16 -17 95 0
16 -17 -95 0
-16 17 -95 0
16 17 95 0
-23 24 96 0
23 24 -96 0
-23 -24 -96 0
23 -24 96 0
25 -26 97 0
-25 -26 -97 0
25 26 -97 0
-25 26 97 0
33 34 98 0
-33 34 -98 0
33 -34 -98 0
-33 -34 98 0
-35 -36 99 0
35 -36 -99 0
-35 36 -99 0
35 36 99 0
-37 39 100 0
37 39 -100 0
-37 -39 -100 0
37 -39 100 0
-41 42 101 0
41 42 -101 0
-41 -42 -101 0
41 -42 101 0
43 45 102 0
-43 45 -102 0
43 -45 -102 0
-43 -45 102 0
90 -91 103 0
-90 -91 -103 0
90 91 -103 0
-90 91 103 0
92 -93 104 0
-92 -93 -104 0
92 93 -104 0
-92 93 104 0
94 -95 105 0
-94 -95 -105 0
94 95 -105 0
-94 95 105 0
96 -97 106 0
-96 -97 -106 0
96 97 -106 0
-96 97 106 0
98 -99 107 0
-98 -99 -107 0
98 99 -107 0
-98 99 107 0
100 -101 108 0
-100 -101 -108 0
100 101 -108 0
-100 101 108 0
102 -103 109 0
-102 -103 -109 0
102 103 -109 0
-102 103 109 0
104 -105 110 0
-104 -105 -110 0
104 105 -110 0
-104 105 110 0
106 -107 111 0
-106 -107 -111 0
106 107 -111 0
-106 107 111 0
108 -109 112 0
-108 -109 -112 0
108 109 -112 0
-108 109 112 0
110 -111 113 0
-110 -111 -113 0
110 111 -113 0
-110 111 113 0
112 113 0
-112 -113 0
2 4 114 0
-2 4 -114 0
2 -4 -114 0
-2 -4 114 0
-6 11 115 0
6 11 -115 0
-6 -11 -115 0
6 -11 115 0
12 -14 116 0
-12 -14 -116 0
12 14 -116 0
-12 14 116 0
19 -20 117 0
-19 -20 -117 0
19 20 -117 0
-19 20 117 0
-21 25 118 0
21 25 -118 0
-21 -25 -118 0
21 -25 118 0
27 -29 119 0
-27 -29 -119 0
27 29 -119 0
-27 29 119 0
30 32 120 0
-30 32 -120 0
30 -32 -120 0
-30 -32 120 0
38 39 121 0
-38 39 -121 0
38 -39 -121 0
-38 -39 121 0
40 41 122 0
-40 41 -122 0
40 -41 -122 0
-40 -41 122 0
42 43 123 0
-42 43 -123 0
42 -43 -123 0
-42 -43 123 0
44 45 124 0
-44 45 -124 0
44 -45 -124 0
-44 -45 124 0
113 -114 125 0
-113 -114 -125 0
113 114 -125 0
-113 114 125 0
115 -116 126 0
-115 -116 -126 0
115 116 -126 0
-115 116 126 0
117 -118 127 0
-117 -118 -127 0
117 118 -127 0
-117 118 127 0
119 -120 128 0
-119 -120 -128 0
119 120 -128 0
-119 120 128 0
121 -122 129 0
-121 -122 -129 0
121 122 -129 0
-121 122 129 0
123 -124 130 0
-123 -124 -130 0
123 124 -130 0
-123 124 130 0
125 -126 131 0
-125 -126 -131 0
125 126 -131 0
-125 126 131 0
127 -128 132 0
-127 -128 -132 0
127 128 -132 0
-127 128 132 0
129 -130 133 0
-129 -130 -133 0
129 130 -133 0
-129 130 133 0
-131 -132 133 0
131 -132 -133 0
-131 132 -133 0
131 132 133 0
-2 3 134 0
2 3 -134 0
-2 -3 -134 0
2 -3 134 0
4 -6 135 0
-4 -6 -135 0
4 6 -135 0
-4 6 135 0
8 -9 136 0
-8 -9 -136 0
8 9 -136 0
-8 9 136 0
10 11 137 0
-10 11 -137 0
10 -11 -137 0
-10 -11 137 0
-12 13 138 0
12 13 -138 0
-12 -13 -138 0
12 -13 138 0
15 -18 139 0
-15 -18 -139 0
15 18 -139 0
-15 18 139 0
-19 20 140 0
19 20 -140 0
-19 -20 -140 0
19 -20 140 0
-23 24 141 0
23 24 -141 0
-23 -24 -141 0
23 -24 141 0
25 29 142 0
-25 29 -142 0
25 -29 -142 0
-25 -29 142 0
31 -34 143 0
-31 -34 -143 0
31 34 -143 0
-31 34 143 0
36 -39 144 0
-36 -39 -144 0
36 39 -144 0
-36 39 144 0
-40 41 145 0
40 41 -145 0
-40 -41 -145 0
40 -41 145 0
-42 43 146 0
42 43 -146 0
-42 -43 -146 0
42 -43 146 0
-44 -45 147 0
44 -45 -147 0
-44 45 -147 0
44 45 147 0
-48 50 148 0
48 50 -148 0
-48 -50 -148 0
48 -50 148 0
134 -135 149 0
-134 -135 -149 0
134 135 -149 0
-134 135 149 0
136 -137 150 0
-136 -137 -150 0
136 137 -150 0
-136 137 150 0
138 -139 151 0
-138 -139 -151 0
138 139 -151 0
-138 139 151 0
140 -141 152 0
-140 -141 -152 0
140 141 -152 0
-140 141 152 0
142 -143 153 0
-142 -143 -153 0
142 143 -153 0
-142 143 153 0
144 -145 154 0
-144 -145 -154 0
144 145 -154 0
-144 145 154 0
146 -147 155 0
-146 -147 -155 0
146 147 -155 0
-146 147 155 0
148 -149 156 0
-148 -149 -156 0
148 149 -156 0
-148 149 156 0
150 -151 157 0
-150 -151 -157 0
150 151 -157 0
-150 151 157 0
152 -153 158 0
-152 -153 -158 0
152 153 -158 0
-152 153 158 0
154 -155 159 0
-154 -155 -159 0
154 155 -159 0
-154 155 159 0
156 -157 160 0
-156 -157 -160 0
156 157 -160 0
-156 157 160 0
158 -159 161 0
-158 -159 -161 0
158 159 -161 0
-158 159 161 0
160 161 0
-160 -161 0
1 2 162 0
-1 2 -162 0
1 -2 -162 0
-1 -2 162 0
-4 -6 163 0
4 -6 -163 0
-4 6 -163 0
4 6 163 0
-7 -8 164 0
7 -8 -164 0
-7 8 -164 0
7 8 164 0
-9 -10 165 0
9 -10 -165 0
-9 10 -165 0
9 10 165 0
-11 12 166 0
11 12 -166 0
-11 -12 -166 0
11 -12 166 0
13 -14 167 0
-13 -14 -167 0
13 14 -167 0
-13 14 167 0
-17 -18 168 0
17 -18 -168 0
-17 18 -168 0
17 18 168 0
20 -24 169 0
-20 -24 -169 0
20 24 -169 0
-20 24 169 0
-25 -26 170 0
25 -26 -170 0
-25 26 -170 0
25 26 170 0
28 29 171 0
-28 29 -171 0
28 -29 -171 0
-28 -29 171 0
32 -33 172 0
-32 -33 -172 0
32 33 -172 0
-32 33 172 0
39 43 173 0
-39 43 -173 0
39 -43 -173 0
-39 -43 173 0
45 47 174 0
-45 47 -174 0
45 -47 -174 0
-45 -47 174 0
161 -162 175 0
-161 -162 -175 0
161 162 -175 0
-161 162 175 0
163 -164 176 0
-163 -164 -176 0
163 164 -176 0
-163 164 176 0
165 -166 177 0
-165 -166 -177 0
165 166 -177 0
-165 166 177 0
167 -168 178 0
-167 -168 -178 0
167 168 -178 0
-167 168 178 0
169 -170 179 0
-169 -170 -179 0
169 170 -179 0
-169 170 179 0
171 -172 180 0
-171 -172 -180 0
171 172 -180 0
-171 172 180 0
173 -174 181 0
-173 -174 -181 0
173 174 -181 0
-173 174 181 0
175 -176 182 0
-175 -176 -182 0
175 176 -182 0
-175 176 182 0
177 -178 183 0
-177 -178 -183 0
177 178 -183 0
-177 178 183 0
179 -180 184 0
-179 -180 -184 0
179 180 -184 0
-179 180 184 0
181 -182 185 0
-181 -182 -185 0
181 182 -185 0
-181 182 185 0
183 -184 186 0
-183 -184 -186 0
183 184 -186 0
-183 184 186 0
185 186 0
-185 -186 0
-1 -2 187 0
1 -2 -187 0
-1 2 -187 0
1 2 187 0
-3 -8 188 0
3 -8 -188 0
-3 8 -188 0
3 8 188 0
11 15 189 0
-11 15 -189 0
11 -15 -189 0
-11 -15 189 0
-17 -21 190 0
17 -21 -190 0
-17 21 -190 0
17 21 190 0
23 26 191 0
-23 26 -191 0
23 -26 -191 0
-23 -26 191 0
-28 32 192 0
28 32 -192 0
-28 -32 -192 0
28 -32 192 0
-34 35 193 0
34 35 -193 0
-34 -35 -193 0
34 -35 193 0
39 -40 194 0
-39 -40 -194 0
39 40 -194 0
-39 40 194 0
46 -50 195 0
-46 -50 -195 0
46 50 -195 0
-46 50 195 0
187 -188 196 0
-187 -188 -196 0
187 188 -196 0
-187 188 196 0
189 -190 197 0
-189 -190 -197 0
189 190 -197 0
-189 190 197 0
191 -192 198 0
-191 -192 -198 0
191 192 -198 0
-191 192 198 0
193 -194 199 0
-193 -194 -199 0
193 194 -199 0
-193 194 199 0
195 -196 200 0
-195 -196 -200 0
195 196 -200 0
-195 196 200 0
197 -198 201 0
-197 -198 -201 0
197 198 -201 0
-197 198 201 0
-199 -200 201 0
199 -200 -201 0
-199 200 -201 0
199 200 201 0
-1 2 202 0
1 2 -202 0
-1 -2 -202 0
1 -2 202 0
6 -7 203 0
-6 -7 -203 0
6 7 -203 0
-6 7 203 0
8 11 204 0
-8 11 -204 0
8 -11 -204 0
-8 -11 204 0
12 -17 205 0
-12 -17 -205 0
12 17 -205 0
-12 17 205 0
-18 -19 206 0
18 -19 -206 0
-18 19 -206 0
18 19 206 0
-20 -24 207 0
20 -24 -207 0
-20 24 -207 0
20 24 207 0
-25 28 208 0
25 28 -208 0
-25 -28 -208 0
25 -28 208 0
30 36 209 0
-30 36 -209 0
30 -36 -209 0
-30 -36 209 0
-38 39 210 0
38 39 -210 0
-38 -39 -210 0
38 -39 210 0
40 41 211 0
-40 41 -211 0
40 -41 -211 0
-40 -41 211 0
42 43 212 0
-42 43 -212 0
42 -43 -212 0
-42 -43 212 0
44 -45 213 0
-44 -45 -213 0
44 45 -213 0
-44 45 213 0
46 -47 214 0
-46 -47 -214 0
46 47 -214 0
-46 47 214 0
201 -202 215 0
-201 -202 -215 0
201 202 -215 0
-201 202 215 0
203 -204 216 0
-203 -204 -216 0
203 204 -216 0
-203 204 216 0
205 -206 217 0
-205 -206 -217 0
205 206 -217 0
-205 206 217 0
207 -208 218 0
-207 -208 -218 0
207 208 -218 0
-207 208 218 0
209 -210 219 0
-209 -210 -219 0
209 210 -219 0
-209 210 219 0
211 -212 220 0
-211 -212 -220 0
211 212 -220 0
-211 212 220 0
213 -214 221 0
-213 -214 -221 0
213 214 -221 0
-213 214 221 0
215 -216 222 0
-215 -216 -222 0
215 216 -222 0
-215 216 222 0
217 -218 223 0
-217 -218 -223 0
217 218 -223 0
-217 218 223 0
219 -220 224 0
-219 -220 -224 0
219 220 -224 0
-219 220 224 0
221 -222 225 0
-221 -222 -225 0
221 222 -225 0
-221 222 225 0
223 -224 226 0
-223 -224 -226 0
223 224 -226 0
-223 224 226 0
225 226 0
-225 -226 0
2 3 227 0
-2 3 -227 0
2 -3 -227 0
-2 -3 227 0
7 8 228 0
-7 8 -228 0
7 -8 -228 0
-7 -8 228 0
-9 11 229 0
9 11 -229 0
-9 -11 -229 0
9 -11 229 0
13 16 230 0
-13 16 -230 0
13 -16 -230 0
-13 -16 230 0
21 -23 231 0
-21 -23 -231 0
21 23 -231 0
-21 23 231 0
25 27 232 0
-25 27 -232 0
25 -27 -232 0
-25 -27 232 0
-29 -30 233 0
29 -30 -233 0
-29 30 -233 0
29 30 233 0
-31 32 234 0
31 32 -234 0
-31 -32 -234 0
31 -32 234 0
-33 35 235 0
33 35 -235 0
-33 -35 -235 0
33 -35 235 0
-36 38 236 0
36 38 -236 0
-36 -38 -236 0
36 -38 236 0
39 -40 237 0
-39 -40 -237 0
39 40 -237 0
-39 40 237 0
42 -44 238 0
-42 -44 -238 0
42 44 -238 0
-42 44 238 0
-45 49 239 0
45 49 -239 0
-45 -49 -239 0
45 -49 239 0
226 -227 240 0
-226 -227 -240 0
226 227 -240 0
-226 227 240 0
228 -229 241 0
-228 -229 -241 0
228 229 -241 0
-228 229 241 0
230 -231 242 0
-230 -231 -242 0
230 231 -242 0
-230 231 242 0
232 -233 243 0
-232 -233 -243 0
232 233 -243 0
-232 233 243 0
234 -235 244 0
-234 -235 -244 0
234 235 -244 0
-234 235 244 0
236 -237 245 0
-236 -237 -245 0
236 237 -245 0
-236 237 245 0
238 -239 246 0
-238 -239 -246 0
238 239 -246 0
-238 239 246 0
240 -241 247 0
-240 -241 -247 0
240 241 -247 0
-240 241 247 0
242 -243 248 0
-242 -243 -248 0
242 243 -248 0
-242 243 248 0
244 -245 249 0
-244 -245 -249 0
244 245 -249 0
-244 245 249 0
246 -247 250 0
-246 -247 -250 0
246 247 -250 0
-246 247 250 0
248 -249 251 0
-248 -249 -251 0
248 249 -251 0
-248 249 251 0
250 251 0
-250 -251 0
2 4 252 0
-2 4 -252 0
2 -4 -252 0
-2 -4 252 0
-5 6 253 0
5 6 -253 0
-5 -6 -253 0
5 -6 253 0
-7 -8 254 0
7 -8 -254 0
-7 8 -254 0
7 8 254 0
-9 -12 255 0
9 -12 -255 0
-9 12 -255 0
9 12 255 0
-13 15 256 0
13 15 -256 0
-13 -15 -256 0
13 -15 256 0
-16 18 257 0
16 18 -257 0
-16 -18 -257 0
16 -18 257 0
-19 20 258 0
19 20 -258 0
-19 -20 -258 0
19 -20 258 0
22 -24 259 0
-22 -24 -259 0
22 24 -259 0
-22 24 259 0
28 29 260 0
-28 29 -260 0
28 -29 -260 0
-28 -29 260 0
-32 -34 261 0
32 -34 -261 0
-32 34 -261 0
32 34 261 0
35 37 262 0
-35 37 -262 0
35 -37 -262 0
-35 -37 262 0
38 -43 263 0
-38 -43 -263 0
38 43 -263 0
-38 43 263 0
45 47 264 0
-45 47 -264 0
45 -47 -264 0
-45 -47 264 0
-49 50 265 0
49 50 -265 0
-49 -50 -265 0
49 -50 265 0
252 -253 266 0
-252 -253 -266 0
252 253 -266 0
-252 253 266 0
254 -255 267 0
-254 -255 -267 0
254 255 -267 0
-254 255 267 0
256 -257 268 0
-256 -257 -268 0
256 257 -268 0
-256 257 268 0
258 -259 269 0
-258 -259 -269 0
258 259 -269 0
-258 259 269 0
260 -261 270 0
-260 -261 -270 0
260 261 -270 0
-260 261 270 0
262 -263 271 0
-262 -263 -271 0
262 263 -271 0
-262 263 271 0
264 -265 272 0
-264 -265 -272 0
264 265 -272 0
-264 265 272 0
266 -267 273 0
-266 -267 -273 0
266 267 -273 0
-266 267 273 0
268 -269 274 0
-268 -269 -274 0
268 269 -274 0
-268 269 274 0
270 -271 275 0
-270 -271 -275 0
270 271 -275 0
-270 271 275 0
272 -273 276 0
-272 -273 -276 0
272 273 -276 0
-272 273 276 0
274 -275 277 0
-274 -275 -277 0
274 275 -277 0
-274 275 277 0
276 277 0
-276 -277 0
3 4 278 0
-3 4 -278 0
3 -4 -278 0
-3 -4 278 0
5 -6 279 0
-5 -6 -279 0
5 6 -279 0
-5 6 279 0
8 10 280 0
-8 10 -280 0
8 -10 -280 0
-8 -10 280 0
-12 18 281 0
12 18 -281 0
-12 -18 -281 0
12 -18 281 0
19 20 282 0
-19 20 -282 0
19 -20 -282 0
-19 -20 282 0
21 22 283 0
-21 22 -283 0
21 -22 -283 0
-21 -22 283 0
-23 -26 284 0
23 -26 -284 0
-23 26 -284 0
23 26 284 0
27 30 285 0
-27 30 -285 0
27 -30 -285 0
-27 -30 285 0
31 -32 286 0
-31 -32 -286 0
31 32 -286 0
-31 32 286 0
33 -34 287 0
-33 -34 -287 0
33 34 -287 0
-33 34 287 0
-36 -37 288 0
36 -37 -288 0
-36 37 -288 0
36 37 288 0
38 40 289 0
-38 40 -289 0
38 -40 -289 0
-38 -40 289 0
41 43 290 0
-41 43 -290 0
41 -43 -290 0
-41 -43 290 0
-44 45 291 0
44 45 -291 0
-44 -45 -291 0
44 -45 291 0
46 50 292 0
-46 50 -292 0
46 -50 -292 0
-46 -50 292 0
278 -279 293 0
-278 -279 -293 0
278 279 -293 0
-278 279 293 0
280 -281 294 0
-280 -281 -294 0
280 281 -294 0
-280 281 294 0
282 -283 295 0
-282 -283 -295 0
282 283 -295 0
-282 283 295 0
284 -285 296 0
-284 -285 -296 0
284 285 -296 0
-284 285 296 0
286 -287 297 0
-286 -287 -297 0
286 287 -297 0
-286 287 297 0
288 -289 298 0
-288 -289 -298 0
288 289 -298 0
-288 289 298 0
290 -291 299 0
-290 -291 -299 0
290 291 -299 0
-290 291 299 0
292 -293 300 0
-292 -293 -300 0
292 293 -300 0
-292 293 300 0
294 -295 301 0
-294 -295 -301 0
294 295 -301 0
-294 295 301 0
296 -297 302 0
-296 -297 -302 0
296 297 -302 0
-296 297 302 0
298 -299 303 0
-298 -299 -303 0
298 299 -303 0
-298 299 303 0
300 -301 304 0
-300 -301 -304 0
300 301 -304 0
-300 301 304 0
302 -303 305 0
-302 -303 -305 0
302 303 -305 0
-302 303 305 0
304 305 0
-304 -305 0
1 -3 306 0
-1 -3 -306 0
1 3 -306 0
-1 3 306 0
-5 -7 307 0
5 -7 -307 0
-5 7 -307 0
5 7 307 0
8 10 308 0
-8 10 -308 0
8 -10 -308 0
-8 -10 308 0
15 -16 309 0
-15 -16 -309 0
15 16 -309 0
-15 16 309 0
-20 21 310 0
20 21 -310 0
-20 -21 -310 0
20 -21 310 0
22 23 311 0
-22 23 -311 0
22 -23 -311 0
-22 -23 311 0
-26 28 312 0
26 28 -312 0
-26 -28 -312 0
26 -28 312 0
29 30 313 0
-29 30 -313 0
29 -30 -313 0
-29 -30 313 0
31 -38 314 0
-31 -38 -314 0
31 38 -314 0
-31 38 314 0
-42 43 315 0
42 43 -315 0
-42 -43 -315 0
42 -43 315 0
46 -47 316 0
-46 -47 -316 0
46 47 -316 0
-46 47 316 0
-48 49 317 0
48 49 -317 0
-48 -49 -317 0
48 -49 317 0
305 -306 318 0
-305 -306 -318 0
305 306 -318 0
-305 306 318 0
307 -308 319 0
-307 -308 -319 0
307 308 -319 0
-307 308 319 0
309 -310 320 0
-309 -310 -320 0
309 310 -320 0
-309 310 320 0
311 -312 321 0
-311 -312 -321 0
311 312 -321 0
-311 312 321 0
313 -314 322 0
-313 -314 -322 0
313 314 -322 0
-313 314 322 0
315 -316 323 0
-315 -316 -323 0
315 316 -323 0
-315 316 323 0
317 -318 324 0
-317 -318 -324 0
317 318 -324 0
-317 318 324 0
319 -320 325 0
-319 -320 -325 0
319 320 -325 0
-319 320 325 0
321 -322 326 0
-321 -322 -326 0
321 322 -326 0
-321 322 326 0
323 -324 327 0
-323 -324 -327 0
323 324 -327 0
-323 324 327 0
325 -326 328 0
-325 -326 -328 0
325 326 -328 0
-325 326 328 0
327 328 0
-327 -328 0
-1 -3 329 0
1 -3 -329 0
-1 3 -329 0
1 3 329 0
-4 8 330 0
4 8 -330 0
-4 -8 -330 0
4 -8 330 0
11 13 331 0
-11 13 -331 0
11 -13 -331 0
-11 -13 331 0
14 16 332 0
-14 16 -332 0
14 -16 -332 0
-14 -16 332 0
17 -18 333 0
-17 -18 -333 0
17 18 -333 0
-17 18 333 0
21 22 334 0
-21 22 -334 0
21 -22 -334 0
-21 -22 334 0
-23 -25 335 0
23 -25 -335 0
-23 25 -335 0
23 25 335 0
-26 28 336 0
26 28 -336 0
-26 -28 -336 0
26 -28 336 0
-29 -32 337 0
29 -32 -337 0
-29 32 -337 0
29 32 337 0
35 38 338 0
-35 38 -338 0
35 -38 -338 0
-35 -38 338 0
-39 40 339 0
39 40 -339 0
-39 -40 -339 0
39 -40 339 0
-42 -43 340 0
42 -43 -340 0
-42 43 -340 0
42 43 340 0
-46 -47 341 0
46 -47 -341 0
-46 47 -341 0
46 47 341 0
48 -49 342 0
-48 -49 -342 0
48 49 -342 0
-48 49 342 0
329 -330 343 0
-329 -330 -343 0
329 330 -343 0
-329 330 343 0
331 -332 344 0
-331 -332 -344 0
331 332 -344 0
-331 332 344 0
333 -334 345 0
-333 -334 -345 0
333 334 -345 0
-333 334 345 0
335 -336 346 0
-335 -336 -346 0
335 336 -346 0
-335 336 346 0
337 -338 347 0
-337 -338 -347 0
337 338 -347 0
-337 338 347 0
339 -340 348 0
-339 -340 -348 0
339 340 -348 0
-339 340 348 0
341 -342 349 0
-341 -342 -349 0
341 342 -349 0
-341 342 349 0
343 -344 350 0
-343 -344 -350 0
343 344 -350 0
-343 344 350 0
345 -346 351 0
-345 -346 -351 0
345 346 -351 0
-345 346 351 0
347 -348 352 0
-347 -348 -352 0
347 348 -352 0
-347 348 352 0
349 -350 353 0
-349 -350 -353 0
349 350 -353 0
-349 350 353 0
351 -352 354 0
-351 -352 -354 0
351 352 -354 0
-351 352 354 0
353 354 0
-353 -354 0
-1 -2 355 0
1 -2 -355 0
-1 2 -355 0
1 2 355 0
-3 4 356 0
3 4 -356 0
-3 -4 -356 0
3 -4 356 0
-5 6 357 0
5 6 -357 0
-5 -6 -357 0
5 -6 357 0
-7 -9 358 0
7 -9 -358 0
-7 9 -358 0
7 9 358 0
-10 14 359 0
10 14 -359 0
-10 -14 -359 0
10 -14 359 0
-16 24 360 0
16 24 -360 0
-16 -24 -360 0
16 -24 360 0
-25 27 361 0
25 27 -361 0
-25 -27 -361 0
25 -27 361 0
-28 29 362 0
28 29 -362 0
-28 -29 -362 0
28 -29 362 0
-31 -32 363 0
31 -32 -363 0
-31 32 -363 0
31 32 363 0
-34 -36 364 0
34 -36 -364 0
-34 36 -364 0
34 36 364 0
37 -39 365 0
-37 -39 -365 0
37 39 -365 0
-37 39 365 0
42 -44 366 0
-42 -44 -366 0
42 44 -366 0
-42 44 366 0
45 46 367 0
-45 46 -367 0
45 -46 -367 0
-45 -46 367 0
354 -355 368 0
-354 -355 -368 0
354 355 -368 0
-354 355 368 0
356 -357 369 0
-356 -357 -369 0
356 357 -369 0
-356 357 369 0
358 -359 370 0
-358 -359 -370 0
358 359 -370 0
-358 359 370 0
360 -361 371 0
-360 -361 -371 0
360 361 -371 0
-360 361 371 0
362 -363 372 0
-362 -363 -372 0
362 363 -372 0
-362 363 372 0
364 -365 373 0
-364 -365 -373 0
364 365 -373 0
-364 365 373 0
366 -367 374 0
-366 -367 -374 0
366 367 -374 0
-366 367 374 0
368 -369 375 0
-368 -369 -375 0
368 369 -375 0
-368 369 375 0
370 -371 376 0
-370 -371 -376 0
370 371 -376 0
-370 371 376 0
372 -373 377 0
-372 -373 -377 0
372 373 -377 0
-372 373 377 0
374 -375 378 0
-374 -375 -378 0
374 375 -378 0
-374 375 378 0
376 -377 379 0
-376 -377 -379 0
376 377 -379 0
-376 377 379 0
378 379 0
-378 -379 0
-1 -2 380 0
1 -2 -380 0
-1 2 -380 0
1 2 380 0
-3 10 381 0
3 10 -381 0
-3 -10 -381 0
3 -10 381 0
-12 20 382 0
12 20 -382 0
-12 -20 -382 0
12 -20 382 0
23 -24 383 0
-23 -24 -383 0
23 24 -383 0
-23 24 383 0
-25 28 384 0
25 28 -384 0
-25 -28 -384 0
25 -28 384 0
-29 32 385 0
29 32 -385 0
-29 -32 -385 0
29 -32 385 0
33 -34 386 0
-33 -34 -386 0
33 34 -386 0
-33 34 386 0
-35 -37 387 0
35 -37 -387 0
-35 37 -387 0
35 37 387 0
-38 39 388 0
38 39 -388 0
-38 -39 -388 0
38 -39 388 0
-41 -42 389 0
41 -42 -389 0
-41 42 -389 0
41 42 389 0
-44 45 390 0
44 45 -390 0
-44 -45 -390 0
44 -45 390 0
-46 47 391 0
46 47 -391 0
-46 -47 -391 0
46 -47 391 0
379 -380 392 0
-379 -380 -392 0
379 380 -392 0
-379 380 392 0
381 -382 393 0
-381 -382 -393 0
381 382 -393 0
-381 382 393 0
383 -384 394 0
-383 -384 -394 0
383 384 -394 0
-383 384 394 0
385 -386 395 0
-385 -386 -395 0
385 386 -395 0
-385 386 395 0
387 -388 396 0
-387 -388 -396 0
387 388 -396 0
-387 388 396 0
389 -390 397 0
-389 -390 -397 0
389 390 -397 0
-389 390 397 0
391 -392 398 0
-391 -392 -398 0
391 392 -398 0
-391 392 398 0
393 -394 399 0
-393 -394 -399 0
393 394 -399 0
-393 394 399 0
395 -396 400 0
-395 -396 -400 0
395 396 -400 0
-395 396 400 0
397 -398 401 0
-397 -398 -401 0
397 398 -401 0
-397 398 401 0
399 -400 402 0
-399 -400 -402 0
399 400 -402 0
-399 400 402 0
401 402 0
-401 -402 0
1 -5 403 0
-1 -5 -403 0
1 5 -403 0
-1 5 403 0
8 9 404 0
-8 9 -404 0
8 -9 -404 0
-8 -9 404 0
-10 -12 405 0
10 -12 -405 0
-10 12 -405 0
10 12 405 0
-14 -16 406 0
14 -16 -406 0
-14 16 -406 0
14 16 406 0
18 -21 407 0
-18 -21 -407 0
18 21 -407 0
-18 21 407 0
24 25 408 0
-24 25 -408 0
24 -25 -408 0
-24 -25 408 0
-26 -28 409 0
26 -28 -409 0
-26 28 -409 0
26 28 409 0
29 -34 410 0
-29 -34 -410 0
29 34 -410 0
-29 34 410 0
41 -42 411 0
-41 -42 -411 0
41 42 -411 0
-41 42 411 0
-43 -44 412 0
43 -44 -412 0
-43 44 -412 0
43 44 412 0
45 -48 413 0
-45 -48 -413 0
45 48 -413 0
-45 48 413 0
403 -404 414 0
-403 -404 -414 0
403 404 -414 0
-403 404 414 0
405 -406 415 0
-405 -406 -415 0
405 406 -415 0
-405 406 415 0
407 -408 416 0
-407 -408 -416 0
407 408 -416 0
-407 408 416 0
409 -410 417 0
-409 -410 -417 0
409 410 -417 0
-409 410 417 0
411 -412 418 0
-411 -412 -418 0
411 412 -418 0
-411 412 418 0
413 -414 419 0
-413 -414 -419 0
413 414 -419 0
-413 414 419 0
415 -416 420 0
-415 -416 -420 0
415 416 -420 0
-415 416 420 0
417 -418 421 0
-417 -418 -421 0
417 418 -421 0
-417 418 421 0
-419 -420 421 0
419 -420 -421 0
-419 420 -421 0
419 420 421 0
2 4 422 0
-2 4 -422 0
2 -4 -422 0
-2 -4 422 0
5 -8 423 0
-5 -8 -423 0
5 8 -423 0
-5 8 423 0
9 -10 424 0
-9 -10 -424 0
9 10 -424 0
-9 10 424 0
11 12 425 0
-11 12 -425 0
11 -12 -425 0
-11 -12 425 0
-14 15 426 0
14 15 -426 0
-14 -15 -426 0
14 -15 426 0
20 -21 427 0
-20 -21 -427 0
20 21 -427 0
-20 21 427 0
-24 25 428 0
24 25 -428 0
-24 -25 -428 0
24 -25 428 0
-27 29 429 0
27 29 -429 0
-27 -29 -429 0
27 -29 429 0
32 -34 430 0
-32 -34 -430 0
32 34 -430 0
-32 34 430 0
35 38 431 0
-35 38 -431 0
35 -38 -431 0
-35 -38 431 0
-39 -42 432 0
39 -42 -432 0
-39 42 -432 0
39 42 432 0
43 44 433 0
-43 44 -433 0
43 -44 -433 0
-43 -44 433 0
45 46 434 0
-45 46 -434 0
45 -46 -434 0
-45 -46 434 0
-47 -48 435 0
47 -48 -435 0
-47 48 -435 0
47 48 435 0
421 -422 436 0
-421 -422 -436 0
421 422 -436 0
-421 422 436 0
423 -424 437 0
-423 -424 -437 0
423 424 -437 0
-423 424 437 0
425 -426 438 0
-425 -426 -438 0
425 426 -438 0
-425 426 438 0
427 -428 439 0
-427 -428 -439 0
427 428 -439 0
-427 428 439 0
429 -430 440 0
-429 -430 -440 0
429 430 -440 0
-429 430 440 0
431 -432 441 0
-431 -432 -441 0
431 432 -441 0
-431 432 441 0
433 -434 442 0
-433 -434 -442 0
433 434 -442 0
-433 434 442 0
435 -436 443 0
-435 -436 -443 0
435 436 -443 0
-435 436 443 0
437 -438 444 0
-437 -438 -444 0
437 438 -444 0
-437 438 444 0
439 -440 445 0
-439 -440 -445 0
439 440 -445 0
-439 440 445 0
441 -442 446 0
-441 -442 -446 0
441 442 -446 0
-441 442 446 0
443 -444 447 0
-443 -444 -447 0
443 444 -447 0
-443 444 447 0
445 -446 448 0
-445 -446 -448 0
445 446 -448 0
-445 446 448 0
447 448 0
-447 -448 0
1 -4 449 0
-1 -4 -449 0
1 4 -449 0
-1 4 449 0
-7 -8 450 0
7 -8 -450 0
-7 8 -450 0
7 8 450 0
-9 10 451 0
9 10 -451 0
-9 -10 -451 0
9 -10 451 0
-12 13 452 0
12 13 -452 0
-12 -13 -452 0
12 -13 452 0
14 15 453 0
-14 15 -453 0
14 -15 -453 0
-14 -15 453 0
-16 -17 454 0
16 -17 -454 0
-16 17 -454 0
16 17 454 0
-20 23 455 0
20 23 -455 0
-20 -23 -455 0
20 -23 455 0
-29 31 456 0
29 31 -456 0
-29 -31 -456 0
29 -31 456 0
-32 37 457 0
32 37 -457 0
-32 -37 -457 0
32 -37 457 0
38 41 458 0
-38 41 -458 0
38 -41 -458 0
-38 -41 458 0
-42 -47 459 0
42 -47 -459 0
-42 47 -459 0
42 47 459 0
448 -449 460 0
-448 -449 -460 0
448 449 -460 0
-448 449 460 0
450 -451 461 0
-450 -451 -461 0
450 451 -461 0
-450 451 461 0
452 -453 462 0
-452 -453 -462 0
452 453 -462 0
-452 453 462 0
454 -455 463 0
-454 -455 -463 0
454 455 -463 0
-454 455 463 0
456 -457 464 0
-456 -457 -464 0
456 457 -464 0
-456 457 464 0
458 -459 465 0
-458 -459 -465 0
458 459 -465 0
-458 459 465 0
460 -461 466 0
-460 -461 -466 0
460 461 -466 0
-460 461 466 0
462 -463 467 0
-462 -463 -467 0
462 463 -467 0
-462 463 467 0
464 -465 468 0
-464 -465 -468 0
464 465 -468 0
-464 465 468 0
-466 -467 468 0
466 -467 -468 0
-466 467 -468 0
466 467 468 0
-1 2 469 0
1 2 -469 0
-1 -2 -469 0
1 -2 469 0
4 5 470 0
-4 5 -470 0
4 -5 -470 0
-4 -5 470 0
7 -8 471 0
-7 -8 -471 0
7 8 -471 0
-7 8 471 0
-9 12 472 0
9 12 -472 0
-9 -12 -472 0
9 -12 472 0
-13 15 473 0
13 15 -473 0
-13 -15 -473 0
13 -15 473 0
-16 -18 474 0
16 -18 -474 0
-16 18 -474 0
16 18 474 0
-20 21 475 0
20 21 -475 0
-20 -21 -475 0
20 -21 475 0
22 23 476 0
-22 23 -476 0
22 -23 -476 0
-22 -23 476 0
-24 -25 477 0
24 -25 -477 0
-24 25 -477 0
24 25 477 0
26 27 478 0
-26 27 -478 0
26 -27 -478 0
-26 -27 478 0
28 29 479 0
-28 29 -479 0
28 -29 -479 0
-28 -29 479 0
30 31 480 0
-30 31 -480 0
30 -31 -480 0
-30 -31 480 0
36 37 481 0
-36 37 -481 0
36 -37 -481 0
-36 -37 481 0
-38 -39 482 0
38 -39 -482 0
-38 39 -482 0
38 39 482 0
-42 43 483 0
42 43 -483 0
-42 -43 -483 0
42 -43 483 0
-44 -45 484 0
44 -45 -484 0
-44 45 -484 0
44 45 484 0
46 -47 485 0
-46 -47 -485 0
46 47 -485 0
-46 47 485 0
48 -49 486 0
-48 -49 -486 0
48 49 -486 0
-48 49 486 0
469 -470 487 0
-469 -470 -487 0
469 470 -487 0
-469 470 487 0
471 -472 488 0
-471 -472 -488 0
471 472 -488 0
-471 472 488 0
473 -474 489 0
-473 -474 -489 0
473 474 -489 0
-473 474 489 0
475 -476 490 0
-475 -476 -490 0
475 476 -490 0
-475 476 490 0
477 -478 491 0
-477 -478 -491 0
477 478 -491 0
-477 478 491 0
479 -480 492 0
-479 -480 -492 0
479 480 -492 0
-479 480 492 0
481 -482 493 0
-481 -482 -493 0
481 482 -493 0
-481 482 493 0
483 -484 494 0
-483 -484 -494 0
483 484 -494 0
-483 484 494 0
485 -486 495 0
-485 -486 -495 0
485 486 -495 0
-485 486 495 0
487 -488 496 0
-487 -488 -496 0
487 488 -496 0
-487 488 496 0
489 -490 497 0
-489 -490 -497 0
489 490 -497 0
-489 490 497 0
491 -492 498 0
-491 -492 -498 0
491 492 -498 0
-491 492 498 0
493 -494 499 0
-493 -494 -499 0
493 494 -499 0
-493 494 499 0
495 -496 500 0
-495 -496 -500 0
495 496 -500 0
-495 496 500 0
497 -498 501 0
-497 -498 -501 0
497 498 -501 0
-497 498 501 0
-499 -500 501 0
499 -500 -501 0
-499 500 -501 0
499 500 501 0
-1 -2 502 0
1 -2 -502 0
-1 2 -502 0
1 2 502 0
5 -7 503 0
-5 -7 -503 0
5 7 -503 0
-5 7 503 0
9 -11 504 0
-9 -11 -504 0
9 11 -504 0
-9 11 504 0
12 -14 505 0
-12 -14 -505 0
12 14 -505 0
-12 14 505 0
16 20 506 0
-16 20 -506 0
16 -20 -506 0
-16 -20 506 0
-21 -22 507 0
21 -22 -507 0
-21 22 -507 0
21 22 507 0
-24 26 508 0
24 26 -508 0
-24 -26 -508 0
24 -26 508 0
28 29 509 0
-28 29 -509 0
28 -29 -509 0
-28 -29 509 0
-32 34 510 0
32 34 -510 0
-32 -34 -510 0
32 -34 510 0
35 36 511 0
-35 36 -511 0
35 -36 -511 0
-35 -36 511 0
-37 -38 512 0
37 -38 -512 0
-37 38 -512 0
37 38 512 0
40 41 513 0
-40 41 -513 0
40 -41 -513 0
-40 -41 513 0
43 46 514 0
-43 46 -514 0
43 -46 -514 0
-43 -46 514 0
-47 50 515 0
47 50 -515 0
-47 -50 -515 0
47 -50 515 0
502 -503 516 0
-502 -503 -516 0
502 503 -516 0
-502 503 516 0
504 -505 517 0
-504 -505 -517 0
504 505 -517 0
-504 505 517 0
506 -507 518 0
-506 -507 -518 0
506 507 -518 0
-506 507 518 0
508 -509 519 0
-508 -509 -519 0
508 509 -519 0
-508 509 519 0
510 -511 520 0
-510 -511 -520 0
510 511 -520 0
-510 511 520 0
512 -513 521 0
-512 -513 -521 0
512 513 -521 0
-512 513 521 0
514 -515 522 0
-514 -515 -522 0
514 515 -522 0
-514 515 522 0
516 -517 523 0
-516 -517 -523 0
516 517 -523 0
-516 517 523 0
518 -519 524 0
-518 -519 -524 0
518 519 -524 0
-518 519 524 0
520 -521 525 0
-520 -521 -525 0
520 521 -525 0
-520 521 525 0
522 -523 526 0
-522 -523 -526 0
522 523 -526 0
-522 523 526 0
524 -525 527 0
-524 -525 -527 0
524 525 -527 0
-524 525 527 0
526 527 0
-526 -527 0
-12 528 0
-24 528 0
-12 -24 529 0
-23 528 0
-12 -23 529 0
-24 -23 529 0
-12 -24 -23 530 0
-22 531 0
-21 531 0
-22 -21 532 0
-20 531 0
-22 -20 532 0
-21 -20 532 0
-22 -21 -20 533 0
-528 534 0
-529 535 0
-530 536 0
-531 534 0
-532 535 0
-533 536 0
-528 -531 535 0
-528 -532 536 0
-528 -533 537 0
-529 -531 536 0
-529 -532 537 0
-529 -533 538 0
-530 -531 537 0
-530 -532 538 0
-530 -533 539 0
-19 540 0
-18 540 0
-19 -18 541 0
-17 540 0
-19 -17 541 0
-18 -17 541 0
-19 -18 -17 542 0
-16 543 0
-15 543 0
-16 -15 544 0
-14 543 0
-16 -14 544 0
-15 -14 544 0
-16 -15 -14 545 0
-540 546 0
-541 547 0
-542 548 0
-543 546 0
-544 547 0
-545 548 0
-540 -543 547 0
-540 -544 548 0
-540 -545 549 0
-541 -543 548 0
-541 -544 549 0
-541 -545 550 0
-542 -543 549 0
-542 -544 550 0
-542 -545 551 0
-13 552 0
-25 552 0
-13 -25 553 0
-11 552 0
-13 -11 553 0
-25 -11 553 0
-13 -25 -11 554 0
-10 555 0
-9 555 0
-10 -9 556 0
-8 555 0
-10 -8 556 0
-9 -8 556 0
-10 -9 -8 557 0
-552 558 0
-553 559 0
-554 560 0
-555 558 0
-556 559 0
-557 560 0
-552 -555 559 0
-552 -556 560 0
-552 -557 561 0
-553 -555 560 0
-553 -556 561 0
-553 -557 562 0
-554 -555 561 0
-554 -556 562 0
-554 -557 563 0
-7 564 0
-6 564 0
-7 -6 565 0
-5 564 0
-7 -5 565 0
-6 -5 565 0
-7 -6 -5 566 0
-4 567 0
-3 567 0
-4 -3 568 0
-2 569 0
-1 569 0
-2 -1 570 0
-37 569 0
-2 -37 570 0
-1 -37 570 0
-2 -1 -37 571 0
-567 572 0
-568 573 0
-569 572 0
-570 573 0
-571 574 0
-567 -569 573 0
-567 -570 574 0
-567 -571 575 0
-568 -569 574 0
-568 -570 575 0
-568 -571 576 0
-564 577 0
-565 578 0
-566 579 0
-572 577 0
-573 578 0
-574 579 0
-575 580 0
-576 581 0
-564 -572 578 0
-564 -573 579 0
-564 -574 580 0
-564 -575 581 0
-564 -576 582 0
-565 -572 579 0
-565 -573 580 0
-565 -574 581 0
-565 -575 582 0
-565 -576 583 0
-566 -572 580 0
-566 -573 581 0
-566 -574 582 0
-566 -575 583 0
-566 -576 584 0
-49 585 0
-48 585 0
-49 -48 586 0
-47 585 0
-49 -47 586 0
-48 -47 586 0
-49 -48 -47 587 0
-46 588 0
-45 588 0
-46 -45 589 0
-44 590 0
-43 590 0
-44 -43 591 0
-42 590 0
-44 -42 591 0
-43 -42 591 0
-44 -43 -42 592 0
-588 593 0
-589 594 0
-590 593 0
-591 594 0
-592 595 0
-588 -590 594 0
-588 -591 595 0
-588 -592 596 0
-589 -590 595 0
-589 -591 596 0
-589 -592 597 0
-585 598 0
-586 599 0
-587 600 0
-593 598 0
-594 599 0
-595 600 0
-596 601 0
-597 602 0
-585 -593 599 0
-585 -594 600 0
-585 -595 601 0
-585 -596 602 0
-585 -597 603 0
-586 -593 600 0
-586 -594 601 0
-586 -595 602 0
-586 -596 603 0
-586 -597 604 0
-587 -593 601 0
-587 -594 602 0
-587 -595 603 0
-587 -596 604 0
-587 -597 605 0
-41 606 0
-40 606 0
-41 -40 607 0
-39 606 0
-41 -39 607 0
-40 -39 607 0
-41 -40 -39 608 0
-38 609 0
-50 609 0
-38 -50 610 0
-36 611 0
-35 611 0
-36 -35 612 0
-34 611 0
-36 -34 612 0
-35 -34 612 0
-36 -35 -34 613 0
-609 614 0
-610 615 0
-611 614 0
-612 615 0
-613 616 0
-609 -611 615 0
-609 -612 616 0
-609 -613 617 0
-610 -611 616 0
-610 -612 617 0
-610 -613 618 0
-606 619 0
-607 620 0
-608 621 0
-614 619 0
-615 620 0
-616 621 0
-617 622 0
-618 623 0
-606 -614 620 0
-606 -615 621 0
-606 -616 622 0
-606 -617 623 0
-606 -618 624 0
-607 -614 621 0
-607 -615 622 0
-607 -616 623 0
-607 -617 624 0
-607 -618 625 0
-608 -614 622 0
-608 -615 623 0
-608 -616 624 0
-608 -617 625 0
-608 -618 626 0
-33 627 0
-32 627 0
-33 -32 628 0
-31 627 0
-33 -31 628 0
-32 -31 628 0
-33 -32 -31 629 0
-30 630 0
-29 630 0
-30 -29 631 0
-28 632 0
-27 632 0
-28 -27 633 0
-26 632 0
-28 -26 633 0
-27 -26 633 0
-28 -27 -26 634 0
-630 635 0
-631 636 0
-632 635 0
-633 636 0
-634 637 0
-630 -632 636 0
-630 -633 637 0
-630 -634 638 0
-631 -632 637 0
-631 -633 638 0
-631 -634 639 0
-627 640 0
-628 641 0
-629 642 0
-635 640 0
-636 641 0
-637 642 0
-638 643 0
-639 644 0
-627 -635 641 0
-627 -636 642 0
-627 -637 643 0
-627 -638 644 0
-627 -639 645 0
-628 -635 642 0
-628 -636 643 0
-628 -637 644 0
-628 -638 645 0
-628 -639 646 0
-629 -635 643 0
-629 -636 644 0
-629 -637 645 0
-629 -638 646 0
-629 -639 647 0
-619 648 0
-621 649 0
-623 650 0
-625 651 0
-640 648 0
-642 649 0
-644 650 0
-646 651 0
-619 -640 649 0
-619 -642 650 0
-619 -644 651 0
-619 -646 652 0
-621 -640 650 0
-621 -642 651 0
-621 -644 652 0
-621 -646 653 0
-623 -640 651 0
-623 -642 652 0
-623 -644 653 0
-625 -640 652 0
-625 -642 653 0
-620 654 0
-624 655 0
-641 654 0
-645 655 0
-620 -641 655 0
-620 -645 656 0
-624 -641 656 0
-622 657 0
-626 658 0
-643 657 0
-647 658 0
-622 -643 658 0
-655 659 0
-657 659 0
-655 -657 660 0
-656 661 0
-658 661 0
-656 -658 662 0
-649 663 0
-654 663 0
-649 -654 664 0
-650 665 0
-659 665 0
-650 -659 666 0
-651 667 0
-660 667 0
-651 -660 668 0
-652 669 0
-661 669 0
-652 -661 670 0
-653 671 0
-662 671 0
-653 -662 672 0
-598 673 0
-600 674 0
-602 675 0
-604 676 0
-648 673 0
-664 674 0
-666 675 0
-668 676 0
-670 677 0
-672 678 0
-598 -648 674 0
-598 -664 675 0
-598 -666 676 0
-598 -668 677 0
-598 -670 678 0
-600 -648 675 0
-600 -664 676 0
-600 -666 677 0
-600 -668 678 0
-602 -648 676 0
-602 -664 677 0
-602 -666 678 0
-604 -648 677 0
-604 -664 678 0
-599 679 0
-603 680 0
-663 679 0
-667 680 0
-671 681 0
-599 -663 680 0
-599 -667 681 0
-603 -663 681 0
-601 682 0
-605 683 0
-665 682 0
-669 683 0
-601 -665 683 0
-680 684 0
-682 684 0
-680 -682 685 0
-681 686 0
-683 686 0
-681 -683 687 0
-674 688 0
-679 688 0
-674 -679 689 0
-675 690 0
-684 690 0
-675 -684 691 0
-676 692 0
-685 692 0
-676 -685 693 0
-677 694 0
-686 694 0
-677 -686 695 0
-678 696 0
-687 696 0
-678 -687 697 0
-577 698 0
-579 699 0
-581 700 0
-583 701 0
-673 698 0
-689 699 0
-691 700 0
-693 701 0
-695 702 0
-697 703 0
-577 -673 699 0
-577 -689 700 0
-577 -691 701 0
-577 -693 702 0
-577 -695 703 0
-579 -673 700 0
-579 -689 701 0
-579 -691 702 0
-579 -693 703 0
-581 -673 701 0
-581 -689 702 0
-581 -691 703 0
-583 -673 702 0
-583 -689 703 0
-578 704 0
-582 705 0
-688 704 0
-692 705 0
-696 706 0
-578 -688 705 0
-578 -692 706 0
-582 -688 706 0
-580 707 0
-584 708 0
-690 707 0
-694 708 0
-580 -690 708 0
-705 709 0
-707 709 0
-705 -707 710 0
-706 711 0
-708 711 0
-706 -708 712 0
-699 713 0
-704 713 0
-699 -704 714 0
-700 715 0
-709 715 0
-700 -709 716 0
-701 717 0
-710 717 0
-701 -710 718 0
-702 719 0
-711 719 0
-702 -711 720 0
-703 721 0
-712 721 0
-703 -712 722 0
-558 723 0
-560 724 0
-562 725 0
-698 723 0
-714 724 0
-716 725 0
-718 726 0
-720 727 0
-722 728 0
-558 -698 724 0
-558 -714 725 0
-558 -716 726 0
-558 -718 727 0
-558 -720 728 0
-560 -698 725 0
-560 -714 726 0
-560 -716 727 0
-560 -718 728 0
-562 -698 726 0
-562 -714 727 0
-562 -716 728 0
-559 729 0
-561 730 0
-563 731 0
-713 729 0
-715 730 0
-717 731 0
-719 732 0
-721 733 0
-559 -713 730 0
-559 -715 731 0
-559 -717 732 0
-559 -719 733 0
-561 -713 731 0
-561 -715 732 0
-561 -717 733 0
-563 -713 732 0
-563 -715 733 0
-724 734 0
-729 734 0
-724 -729 735 0
-725 736 0
-730 736 0
-725 -730 737 0
-726 738 0
-731 738 0
-726 -731 739 0
-727 740 0
-732 740 0
-727 -732 741 0
-728 742 0
-733 742 0
-728 -733 743 0
-546 744 0
-548 745 0
-550 746 0
-723 744 0
-735 745 0
-737 746 0
-739 747 0
-741 748 0
-743 749 0
-546 -723 745 0
-546 -735 746 0
-546 -737 747 0
-546 -739 748 0
-546 -741 749 0
-548 -723 746 0
-548 -735 747 0
-548 -737 748 0
-548 -739 749 0
-550 -723 747 0
-550 -735 748 0
-550 -737 749 0
-547 750 0
-549 751 0
-551 752 0
-734 750 0
-736 751 0
-738 752 0
-740 753 0
-742 754 0
-547 -734 751 0
-547 -736 752 0
-547 -738 753 0
-547 -740 754 0
-549 -734 752 0
-549 -736 753 0
-549 -738 754 0
-551 -734 753 0
-551 -736 754 0
-745 755 0
-750 755 0
-745 -750 756 0
-746 757 0
-751 757 0
-746 -751 758 0
-747 759 0
-752 759 0
-747 -752 760 0
-748 761 0
-753 761 0
-748 -753 762 0
-749 763 0
-754 763 0
-749 -754 764 0
-534 765 0
-536 766 0
-538 767 0
-744 765 0
-756 766 0
-758 767 0
-760 768 0
-762 769 0
-764 770 0
-534 -744 766 0
-534 -756 767 0
-534 -758 768 0
-534 -760 769 0
-534 -762 770 0
-536 -744 767 0
-536 -756 768 0
-536 -758 769 0
-536 -760 770 0
-538 -744 768 0
-538 -756 769 0
-538 -758 770 0
-535 771 0
-537 772 0
-539 773 0
-755 771 0
-757 772 0
-759 773 0
-761 774 0
-763 775 0
-535 -755 772 0
-535 -757 773 0
-535 -759 774 0
-535 -761 775 0
-537 -755 773 0
-537 -757 774 0
-537 -759 775 0
-539 -755 774 0
-539 -757 775 0
-766 776 0
-771 776 0
-766 -771 777 0
-767 778 0
-772 778 0
-767 -772 779 0
-768 780 0
-773 780 0
-768 -773 781 0
-769 782 0
-774 782 0
-769 -774 783 0
-770 784 0
-775 784 0
-770 -775 785 0
-785 0
